NAME : eil101Preorder.528.tour
COMMENT : Length = 528
COMMENT : Found by LKH [Keld Helsgaun] Sat May  2 17:25:29 2020
TYPE : TOUR
DIMENSION : 101
TOUR_SECTION
1
69
27
101
53
28
26
12
80
68
29
24
54
4
55
25
39
67
23
56
75
22
41
74
72
73
21
40
58
13
94
95
97
87
2
57
15
43
42
14
44
38
86
16
61
85
91
100
37
98
93
92
59
99
96
6
89
52
18
83
60
5
84
17
45
8
46
47
36
49
64
63
90
32
10
62
11
19
48
82
7
88
31
70
30
20
66
71
65
35
34
78
81
9
51
33
79
3
77
76
50
-1
EOF
